NAME : 100-5-2-i.30832.tour
COMMENT : Length = 30832
COMMENT : Found by LKH-3 [Keld Helsgaun] Tue Dec 17 14:06:59 2024
TYPE : TOUR
DIMENSION : 110
TOUR_SECTION
1
106
2
107
3
68
91
83
99
92
95
97
77
100
71
87
75
17
33
49
42
23
11
7
38
28
20
25
21
9
22
34
48
6
19
13
26
37
31
27
18
30
10
53
50
55
35
51
54
80
63
104
84
65
89
62
90
69
105
61
79
67
82
78
70
58
60
103
72
81
64
66
56
74
102
85
86
101
57
93
98
88
73
96
94
59
76
108
4
109
5
52
47
8
46
16
44
39
12
36
32
24
14
15
29
45
41
40
43
110
-1
EOF
